17	4	3
17	15	17	17	47	3	12	
0	0	0	0	0	7	8	6	7	5	10	3	2	3	4
10	6	9	7	10	10	1	3	3	9	7	3	5	15	17
2	5	6	6	5	10	8	4	2	5	9	3	6	11	17
8	2	7	6	2	5	2	3	8	4	9	3	9	14	17
5	2	1	4	8	6	4	2	6	7	4	3	7	8	17
200	3	1	9	7	7	4	1	2	10	5	2	10	17
200	5	2	3	6	2	9	6	4	2	4	1	12
25	2	3	9	3	10	2	1	3	3	6	1	11
75	6	10	3	2	2	8	8	5	5	1	1	17
25	9	1	1	9	4	1	4	5	7	1	2	16	17
225	8	6	1	5	8	3	4	9	5	3	1	13
250	9	1	8	7	4	6	2	10	9	4	1	17
1	5	3	1	10	4	9	5	5	1	8	1	17
6	1	9	5	5	10	3	5	7	7	10	1	17
9	10	6	5	2	7	10	1	1	5	7	1	17
7	4	1	9	6	2	3	10	5	2	5	1	17
0	0	0	0	0	8	5	10	10	5	9	0
